db/inputs/29489862128903273741388418822883524208.smt2
(set-logic QF_FP)
(declare-const x0 (_ FloatingPoint 11 53))
(declare-const x1 (_ FloatingPoint 11 53))
(assert (fp.eq (fp.div RNE (fp.mul RNE x1 x1) (fp.div RNE x0 x1)) (fp.div RNE (fp.neg x1) (fp.sub RNE x1 x1))))
(assert (fp.eq (fp.sub RNE (fp.neg x0) (fp.sub RNE x0 x0)) (fp.sub RNE (fp.div RNE x0 x0) (fp.sub RNE x1 x0))))
(check-sat)
