db/data/29489862128903273741388418822883524208.z3.out
sat
-------------------
349.373850903
